; benchmark generated from python API
(set-info :status unknown)
(declare-fun cell_1_3 () Int)
(declare-fun cell_1_4 () Int)
(declare-fun cell_2_7 () Int)
(declare-fun cell_2_8 () Int)
(declare-fun cell_3_1 () Int)
(declare-fun cell_3_6 () Int)
(declare-fun cell_4_2 () Int)
(declare-fun cell_4_3 () Int)
(declare-fun cell_5_6 () Int)
(declare-fun cell_5_9 () Int)
(declare-fun cell_6_4 () Int)
(declare-fun cell_6_8 () Int)
(declare-fun cell_7_1 () Int)
(declare-fun cell_7_5 () Int)
(declare-fun cell_8_2 () Int)
(declare-fun cell_8_7 () Int)
(declare-fun cell_9_9 () Int)
(declare-fun cell_1_1 () Int)
(declare-fun cell_2_1 () Int)
(declare-fun cell_4_1 () Int)
(declare-fun cell_5_1 () Int)
(declare-fun cell_6_1 () Int)
(declare-fun cell_8_1 () Int)
(declare-fun cell_9_1 () Int)
(declare-fun cell_1_2 () Int)
(declare-fun cell_2_2 () Int)
(declare-fun cell_3_2 () Int)
(declare-fun cell_5_2 () Int)
(declare-fun cell_6_2 () Int)
(declare-fun cell_7_2 () Int)
(declare-fun cell_9_2 () Int)
(declare-fun cell_2_3 () Int)
(declare-fun cell_3_3 () Int)
(declare-fun cell_5_3 () Int)
(declare-fun cell_6_3 () Int)
(declare-fun cell_7_3 () Int)
(declare-fun cell_8_3 () Int)
(declare-fun cell_9_3 () Int)
(declare-fun cell_2_4 () Int)
(declare-fun cell_3_4 () Int)
(declare-fun cell_4_4 () Int)
(declare-fun cell_5_4 () Int)
(declare-fun cell_7_4 () Int)
(declare-fun cell_8_4 () Int)
(declare-fun cell_9_4 () Int)
(declare-fun cell_1_5 () Int)
(declare-fun cell_2_5 () Int)
(declare-fun cell_3_5 () Int)
(declare-fun cell_4_5 () Int)
(declare-fun cell_5_5 () Int)
(declare-fun cell_6_5 () Int)
(declare-fun cell_8_5 () Int)
(declare-fun cell_9_5 () Int)
(declare-fun cell_1_6 () Int)
(declare-fun cell_2_6 () Int)
(declare-fun cell_4_6 () Int)
(declare-fun cell_6_6 () Int)
(declare-fun cell_7_6 () Int)
(declare-fun cell_8_6 () Int)
(declare-fun cell_9_6 () Int)
(declare-fun cell_1_7 () Int)
(declare-fun cell_3_7 () Int)
(declare-fun cell_4_7 () Int)
(declare-fun cell_5_7 () Int)
(declare-fun cell_6_7 () Int)
(declare-fun cell_7_7 () Int)
(declare-fun cell_9_7 () Int)
(declare-fun cell_1_8 () Int)
(declare-fun cell_3_8 () Int)
(declare-fun cell_4_8 () Int)
(declare-fun cell_5_8 () Int)
(declare-fun cell_7_8 () Int)
(declare-fun cell_8_8 () Int)
(declare-fun cell_9_8 () Int)
(declare-fun cell_1_9 () Int)
(declare-fun cell_2_9 () Int)
(declare-fun cell_3_9 () Int)
(declare-fun cell_4_9 () Int)
(declare-fun cell_6_9 () Int)
(declare-fun cell_7_9 () Int)
(declare-fun cell_8_9 () Int)
(assert
 (= cell_1_3 2))
(assert
 (= cell_1_4 1))
(assert
 (= cell_2_7 1))
(assert
 (= cell_2_8 2))
(assert
 (= cell_3_1 1))
(assert
 (= cell_3_6 2))
(assert
 (= cell_4_2 2))
(assert
 (= cell_4_3 1))
(assert
 (= cell_5_6 1))
(assert
 (= cell_5_9 2))
(assert
 (= cell_6_4 2))
(assert
 (= cell_6_8 1))
(assert
 (= cell_7_1 2))
(assert
 (= cell_7_5 1))
(assert
 (= cell_8_2 1))
(assert
 (= cell_8_7 2))
(assert
 (= cell_9_9 1))
(assert
 (let (($x8411 (= cell_1_1 9)))
 (let (($x1638 (= cell_1_1 8)))
 (let (($x3602 (= cell_1_1 7)))
 (let (($x3325 (= cell_1_1 6)))
 (let (($x470 (= cell_1_1 5)))
 (let (($x1667 (= cell_1_1 4)))
 (let (($x2813 (= cell_1_1 3)))
 (let (($x3789 (= cell_1_1 2)))
 (let (($x3308 (= cell_1_1 1)))
 (or $x3308 $x3789 $x2813 $x1667 $x470 $x3325 $x3602 $x1638 $x8411)))))))))))
(assert
 (let (($x1120 (= cell_2_1 9)))
 (let (($x5660 (= cell_2_1 8)))
 (let (($x411 (= cell_2_1 7)))
 (let (($x3561 (= cell_2_1 6)))
 (let (($x2046 (= cell_2_1 5)))
 (let (($x5170 (= cell_2_1 4)))
 (let (($x2364 (= cell_2_1 3)))
 (let (($x3239 (= cell_2_1 2)))
 (let (($x628 (= cell_2_1 1)))
 (or $x628 $x3239 $x2364 $x5170 $x2046 $x3561 $x411 $x5660 $x1120)))))))))))
(assert
 (let (($x2648 (= cell_3_1 1)))
 (or $x2648 (= cell_3_1 2) (= cell_3_1 3) (= cell_3_1 4) (= cell_3_1 5) (= cell_3_1 6) (= cell_3_1 7) (= cell_3_1 8) (= cell_3_1 9))))
(assert
 (let (($x1734 (= cell_4_1 9)))
 (let (($x3779 (= cell_4_1 8)))
 (let (($x3593 (= cell_4_1 7)))
 (let (($x917 (= cell_4_1 6)))
 (let (($x8975 (= cell_4_1 5)))
 (let (($x2318 (= cell_4_1 4)))
 (let (($x1214 (= cell_4_1 3)))
 (let (($x3607 (= cell_4_1 2)))
 (let (($x2900 (= cell_4_1 1)))
 (or $x2900 $x3607 $x1214 $x2318 $x8975 $x917 $x3593 $x3779 $x1734)))))))))))
(assert
 (let (($x1575 (= cell_5_1 9)))
 (let (($x1459 (= cell_5_1 8)))
 (let (($x1956 (= cell_5_1 7)))
 (let (($x561 (= cell_5_1 6)))
 (let (($x495 (= cell_5_1 5)))
 (let (($x640 (= cell_5_1 4)))
 (let (($x1168 (= cell_5_1 3)))
 (let (($x1236 (= cell_5_1 2)))
 (let (($x1519 (= cell_5_1 1)))
 (or $x1519 $x1236 $x1168 $x640 $x495 $x561 $x1956 $x1459 $x1575)))))))))))
(assert
 (let (($x1561 (= cell_6_1 9)))
 (let (($x2262 (= cell_6_1 8)))
 (let (($x2076 (= cell_6_1 7)))
 (let (($x1832 (= cell_6_1 6)))
 (let (($x3676 (= cell_6_1 5)))
 (let (($x97 (= cell_6_1 4)))
 (let (($x3133 (= cell_6_1 3)))
 (let (($x1528 (= cell_6_1 2)))
 (let (($x2580 (= cell_6_1 1)))
 (or $x2580 $x1528 $x3133 $x97 $x3676 $x1832 $x2076 $x2262 $x1561)))))))))))
(assert
 (let (($x65 (= cell_7_1 2)))
 (or (= cell_7_1 1) $x65 (= cell_7_1 3) (= cell_7_1 4) (= cell_7_1 5) (= cell_7_1 6) (= cell_7_1 7) (= cell_7_1 8) (= cell_7_1 9))))
(assert
 (let (($x8100 (= cell_8_1 9)))
 (let (($x3331 (= cell_8_1 8)))
 (let (($x1950 (= cell_8_1 7)))
 (let (($x3626 (= cell_8_1 6)))
 (let (($x4541 (= cell_8_1 5)))
 (let (($x8853 (= cell_8_1 4)))
 (let (($x3576 (= cell_8_1 3)))
 (let (($x291 (= cell_8_1 2)))
 (let (($x3374 (= cell_8_1 1)))
 (or $x3374 $x291 $x3576 $x8853 $x4541 $x3626 $x1950 $x3331 $x8100)))))))))))
(assert
 (let (($x1998 (= cell_9_1 9)))
 (let (($x2434 (= cell_9_1 8)))
 (let (($x3735 (= cell_9_1 7)))
 (let (($x2528 (= cell_9_1 6)))
 (let (($x109 (= cell_9_1 5)))
 (let (($x2705 (= cell_9_1 4)))
 (let (($x2937 (= cell_9_1 3)))
 (let (($x2963 (= cell_9_1 2)))
 (let (($x1232 (= cell_9_1 1)))
 (or $x1232 $x2963 $x2937 $x2705 $x109 $x2528 $x3735 $x2434 $x1998)))))))))))
(assert
 (let (($x2638 (= cell_1_2 9)))
 (let (($x600 (= cell_1_2 8)))
 (let (($x1171 (= cell_1_2 7)))
 (let (($x2321 (= cell_1_2 6)))
 (let (($x2706 (= cell_1_2 5)))
 (let (($x306 (= cell_1_2 4)))
 (let (($x1730 (= cell_1_2 3)))
 (let (($x632 (= cell_1_2 2)))
 (let (($x1234 (= cell_1_2 1)))
 (or $x1234 $x632 $x1730 $x306 $x2706 $x2321 $x1171 $x600 $x2638)))))))))))
(assert
 (let (($x1543 (= cell_2_2 9)))
 (let (($x3469 (= cell_2_2 8)))
 (let (($x3500 (= cell_2_2 7)))
 (let (($x1874 (= cell_2_2 6)))
 (let (($x4512 (= cell_2_2 5)))
 (let (($x2048 (= cell_2_2 4)))
 (let (($x8374 (= cell_2_2 3)))
 (let (($x7530 (= cell_2_2 2)))
 (let (($x3104 (= cell_2_2 1)))
 (or $x3104 $x7530 $x8374 $x2048 $x4512 $x1874 $x3500 $x3469 $x1543)))))))))))
(assert
 (let (($x3571 (= cell_3_2 9)))
 (let (($x1398 (= cell_3_2 8)))
 (let (($x1611 (= cell_3_2 7)))
 (let (($x1116 (= cell_3_2 6)))
 (let (($x2732 (= cell_3_2 5)))
 (let (($x2096 (= cell_3_2 4)))
 (let (($x1770 (= cell_3_2 3)))
 (let (($x2139 (= cell_3_2 2)))
 (let (($x694 (= cell_3_2 1)))
 (or $x694 $x2139 $x1770 $x2096 $x2732 $x1116 $x1611 $x1398 $x3571)))))))))))
(assert
 (let (($x3426 (= cell_4_2 2)))
 (or (= cell_4_2 1) $x3426 (= cell_4_2 3) (= cell_4_2 4) (= cell_4_2 5) (= cell_4_2 6) (= cell_4_2 7) (= cell_4_2 8) (= cell_4_2 9))))
(assert
 (let (($x1516 (= cell_5_2 9)))
 (let (($x313 (= cell_5_2 8)))
 (let (($x361 (= cell_5_2 7)))
 (let (($x4364 (= cell_5_2 6)))
 (let (($x2392 (= cell_5_2 5)))
 (let (($x4955 (= cell_5_2 4)))
 (let (($x3455 (= cell_5_2 3)))
 (let (($x3109 (= cell_5_2 2)))
 (let (($x3751 (= cell_5_2 1)))
 (or $x3751 $x3109 $x3455 $x4955 $x2392 $x4364 $x361 $x313 $x1516)))))))))))
(assert
 (let (($x3094 (= cell_6_2 9)))
 (let (($x2197 (= cell_6_2 8)))
 (let (($x1213 (= cell_6_2 7)))
 (let (($x3677 (= cell_6_2 6)))
 (let (($x7078 (= cell_6_2 5)))
 (let (($x1761 (= cell_6_2 4)))
 (let (($x2335 (= cell_6_2 3)))
 (let (($x459 (= cell_6_2 2)))
 (let (($x1422 (= cell_6_2 1)))
 (or $x1422 $x459 $x2335 $x1761 $x7078 $x3677 $x1213 $x2197 $x3094)))))))))))
(assert
 (let (($x1412 (= cell_7_2 9)))
 (let (($x2589 (= cell_7_2 8)))
 (let (($x942 (= cell_7_2 7)))
 (let (($x3100 (= cell_7_2 6)))
 (let (($x3620 (= cell_7_2 5)))
 (let (($x3420 (= cell_7_2 4)))
 (let (($x641 (= cell_7_2 3)))
 (let (($x2431 (= cell_7_2 2)))
 (let (($x2925 (= cell_7_2 1)))
 (or $x2925 $x2431 $x641 $x3420 $x3620 $x3100 $x942 $x2589 $x1412)))))))))))
(assert
 (let (($x3428 (= cell_8_2 1)))
 (or $x3428 (= cell_8_2 2) (= cell_8_2 3) (= cell_8_2 4) (= cell_8_2 5) (= cell_8_2 6) (= cell_8_2 7) (= cell_8_2 8) (= cell_8_2 9))))
(assert
 (let (($x2665 (= cell_9_2 9)))
 (let (($x185 (= cell_9_2 8)))
 (let (($x3686 (= cell_9_2 7)))
 (let (($x1990 (= cell_9_2 6)))
 (let (($x2106 (= cell_9_2 5)))
 (let (($x2959 (= cell_9_2 4)))
 (let (($x1435 (= cell_9_2 3)))
 (let (($x3069 (= cell_9_2 2)))
 (let (($x1269 (= cell_9_2 1)))
 (or $x1269 $x3069 $x1435 $x2959 $x2106 $x1990 $x3686 $x185 $x2665)))))))))))
(assert
 (let (($x1306 (= cell_1_3 2)))
 (or (= cell_1_3 1) $x1306 (= cell_1_3 3) (= cell_1_3 4) (= cell_1_3 5) (= cell_1_3 6) (= cell_1_3 7) (= cell_1_3 8) (= cell_1_3 9))))
(assert
 (let (($x358 (= cell_2_3 9)))
 (let (($x3261 (= cell_2_3 8)))
 (let (($x2556 (= cell_2_3 7)))
 (let (($x19 (= cell_2_3 6)))
 (let (($x2179 (= cell_2_3 5)))
 (let (($x1201 (= cell_2_3 4)))
 (let (($x3400 (= cell_2_3 3)))
 (let (($x1821 (= cell_2_3 2)))
 (let (($x3219 (= cell_2_3 1)))
 (or $x3219 $x1821 $x3400 $x1201 $x2179 $x19 $x2556 $x3261 $x358)))))))))))
(assert
 (let (($x3354 (= cell_3_3 9)))
 (let (($x1056 (= cell_3_3 8)))
 (let (($x651 (= cell_3_3 7)))
 (let (($x351 (= cell_3_3 6)))
 (let (($x863 (= cell_3_3 5)))
 (let (($x2805 (= cell_3_3 4)))
 (let (($x2100 (= cell_3_3 3)))
 (let (($x3634 (= cell_3_3 2)))
 (let (($x3650 (= cell_3_3 1)))
 (or $x3650 $x3634 $x2100 $x2805 $x863 $x351 $x651 $x1056 $x3354)))))))))))
(assert
 (let (($x220 (= cell_4_3 1)))
 (or $x220 (= cell_4_3 2) (= cell_4_3 3) (= cell_4_3 4) (= cell_4_3 5) (= cell_4_3 6) (= cell_4_3 7) (= cell_4_3 8) (= cell_4_3 9))))
(assert
 (let (($x2087 (= cell_5_3 9)))
 (let (($x1552 (= cell_5_3 8)))
 (let (($x1882 (= cell_5_3 7)))
 (let (($x973 (= cell_5_3 6)))
 (let (($x389 (= cell_5_3 5)))
 (let (($x2273 (= cell_5_3 4)))
 (let (($x1360 (= cell_5_3 3)))
 (let (($x1925 (= cell_5_3 2)))
 (let (($x886 (= cell_5_3 1)))
 (or $x886 $x1925 $x1360 $x2273 $x389 $x973 $x1882 $x1552 $x2087)))))))))))
(assert
 (let (($x3564 (= cell_6_3 9)))
 (let (($x1700 (= cell_6_3 8)))
 (let (($x1565 (= cell_6_3 7)))
 (let (($x262 (= cell_6_3 6)))
 (let (($x2529 (= cell_6_3 5)))
 (let (($x3437 (= cell_6_3 4)))
 (let (($x2661 (= cell_6_3 3)))
 (let (($x2954 (= cell_6_3 2)))
 (let (($x590 (= cell_6_3 1)))
 (or $x590 $x2954 $x2661 $x3437 $x2529 $x262 $x1565 $x1700 $x3564)))))))))))
(assert
 (let (($x1185 (= cell_7_3 9)))
 (let (($x1427 (= cell_7_3 8)))
 (let (($x3155 (= cell_7_3 7)))
 (let (($x2071 (= cell_7_3 6)))
 (let (($x3108 (= cell_7_3 5)))
 (let (($x3566 (= cell_7_3 4)))
 (let (($x2717 (= cell_7_3 3)))
 (let (($x3462 (= cell_7_3 2)))
 (let (($x9344 (= cell_7_3 1)))
 (or $x9344 $x3462 $x2717 $x3566 $x3108 $x2071 $x3155 $x1427 $x1185)))))))))))
(assert
 (let (($x9237 (= cell_8_3 9)))
 (let (($x3471 (= cell_8_3 8)))
 (let (($x3569 (= cell_8_3 7)))
 (let (($x326 (= cell_8_3 6)))
 (let (($x1567 (= cell_8_3 5)))
 (let (($x2999 (= cell_8_3 4)))
 (let (($x682 (= cell_8_3 3)))
 (let (($x568 (= cell_8_3 2)))
 (let (($x3277 (= cell_8_3 1)))
 (or $x3277 $x568 $x682 $x2999 $x1567 $x326 $x3569 $x3471 $x9237)))))))))))
(assert
 (let (($x2019 (= cell_9_3 9)))
 (let (($x9323 (= cell_9_3 8)))
 (let (($x1348 (= cell_9_3 7)))
 (let (($x1895 (= cell_9_3 6)))
 (let (($x2702 (= cell_9_3 5)))
 (let (($x817 (= cell_9_3 4)))
 (let (($x2658 (= cell_9_3 3)))
 (let (($x249 (= cell_9_3 2)))
 (let (($x785 (= cell_9_3 1)))
 (or $x785 $x249 $x2658 $x817 $x2702 $x1895 $x1348 $x9323 $x2019)))))))))))
(assert
 (let (($x2389 (= cell_1_4 1)))
 (or $x2389 (= cell_1_4 2) (= cell_1_4 3) (= cell_1_4 4) (= cell_1_4 5) (= cell_1_4 6) (= cell_1_4 7) (= cell_1_4 8) (= cell_1_4 9))))
(assert
 (let (($x1655 (= cell_2_4 9)))
 (let (($x1300 (= cell_2_4 8)))
 (let (($x1237 (= cell_2_4 7)))
 (let (($x1713 (= cell_2_4 6)))
 (let (($x2465 (= cell_2_4 5)))
 (let (($x1335 (= cell_2_4 4)))
 (let (($x838 (= cell_2_4 3)))
 (let (($x2632 (= cell_2_4 2)))
 (let (($x1039 (= cell_2_4 1)))
 (or $x1039 $x2632 $x838 $x1335 $x2465 $x1713 $x1237 $x1300 $x1655)))))))))))
(assert
 (let (($x725 (= cell_3_4 9)))
 (let (($x1194 (= cell_3_4 8)))
 (let (($x836 (= cell_3_4 7)))
 (let (($x1158 (= cell_3_4 6)))
 (let (($x1064 (= cell_3_4 5)))
 (let (($x1344 (= cell_3_4 4)))
 (let (($x3131 (= cell_3_4 3)))
 (let (($x3441 (= cell_3_4 2)))
 (let (($x712 (= cell_3_4 1)))
 (or $x712 $x3441 $x3131 $x1344 $x1064 $x1158 $x836 $x1194 $x725)))))))))))
(assert
 (let (($x1842 (= cell_4_4 9)))
 (let (($x801 (= cell_4_4 8)))
 (let (($x368 (= cell_4_4 7)))
 (let (($x3799 (= cell_4_4 6)))
 (let (($x1129 (= cell_4_4 5)))
 (let (($x2037 (= cell_4_4 4)))
 (let (($x402 (= cell_4_4 3)))
 (let (($x362 (= cell_4_4 2)))
 (let (($x1753 (= cell_4_4 1)))
 (or $x1753 $x362 $x402 $x2037 $x1129 $x3799 $x368 $x801 $x1842)))))))))))
(assert
 (let (($x1709 (= cell_5_4 9)))
 (let (($x606 (= cell_5_4 8)))
 (let (($x844 (= cell_5_4 7)))
 (let (($x2054 (= cell_5_4 6)))
 (let (($x681 (= cell_5_4 5)))
 (let (($x921 (= cell_5_4 4)))
 (let (($x1265 (= cell_5_4 3)))
 (let (($x35 (= cell_5_4 2)))
 (let (($x1759 (= cell_5_4 1)))
 (or $x1759 $x35 $x1265 $x921 $x681 $x2054 $x844 $x606 $x1709)))))))))))
(assert
 (let (($x994 (= cell_6_4 2)))
 (or (= cell_6_4 1) $x994 (= cell_6_4 3) (= cell_6_4 4) (= cell_6_4 5) (= cell_6_4 6) (= cell_6_4 7) (= cell_6_4 8) (= cell_6_4 9))))
(assert
 (let (($x151 (= cell_7_4 9)))
 (let (($x760 (= cell_7_4 8)))
 (let (($x1569 (= cell_7_4 7)))
 (let (($x8164 (= cell_7_4 6)))
 (let (($x1388 (= cell_7_4 5)))
 (let (($x603 (= cell_7_4 4)))
 (let (($x2871 (= cell_7_4 3)))
 (let (($x995 (= cell_7_4 2)))
 (let (($x393 (= cell_7_4 1)))
 (or $x393 $x995 $x2871 $x603 $x1388 $x8164 $x1569 $x760 $x151)))))))))))
(assert
 (let (($x2135 (= cell_8_4 9)))
 (let (($x3216 (= cell_8_4 8)))
 (let (($x1906 (= cell_8_4 7)))
 (let (($x3182 (= cell_8_4 6)))
 (let (($x3539 (= cell_8_4 5)))
 (let (($x1643 (= cell_8_4 4)))
 (let (($x833 (= cell_8_4 3)))
 (let (($x3298 (= cell_8_4 2)))
 (let (($x218 (= cell_8_4 1)))
 (or $x218 $x3298 $x833 $x1643 $x3539 $x3182 $x1906 $x3216 $x2135)))))))))))
(assert
 (let (($x1003 (= cell_9_4 9)))
 (let (($x842 (= cell_9_4 8)))
 (let (($x1857 (= cell_9_4 7)))
 (let (($x2423 (= cell_9_4 6)))
 (let (($x2160 (= cell_9_4 5)))
 (let (($x545 (= cell_9_4 4)))
 (let (($x1204 (= cell_9_4 3)))
 (let (($x2256 (= cell_9_4 2)))
 (let (($x1695 (= cell_9_4 1)))
 (or $x1695 $x2256 $x1204 $x545 $x2160 $x2423 $x1857 $x842 $x1003)))))))))))
(assert
 (let (($x2577 (= cell_1_5 9)))
 (let (($x3722 (= cell_1_5 8)))
 (let (($x2159 (= cell_1_5 7)))
 (let (($x1918 (= cell_1_5 6)))
 (let (($x1156 (= cell_1_5 5)))
 (let (($x453 (= cell_1_5 4)))
 (let (($x2177 (= cell_1_5 3)))
 (let (($x2915 (= cell_1_5 2)))
 (let (($x956 (= cell_1_5 1)))
 (or $x956 $x2915 $x2177 $x453 $x1156 $x1918 $x2159 $x3722 $x2577)))))))))))
(assert
 (let (($x2105 (= cell_2_5 9)))
 (let (($x3689 (= cell_2_5 8)))
 (let (($x382 (= cell_2_5 7)))
 (let (($x2799 (= cell_2_5 6)))
 (let (($x1166 (= cell_2_5 5)))
 (let (($x1570 (= cell_2_5 4)))
 (let (($x486 (= cell_2_5 3)))
 (let (($x1751 (= cell_2_5 2)))
 (let (($x2120 (= cell_2_5 1)))
 (or $x2120 $x1751 $x486 $x1570 $x1166 $x2799 $x382 $x3689 $x2105)))))))))))
(assert
 (let (($x5638 (= cell_3_5 9)))
 (let (($x776 (= cell_3_5 8)))
 (let (($x1992 (= cell_3_5 7)))
 (let (($x2298 (= cell_3_5 6)))
 (let (($x3479 (= cell_3_5 5)))
 (let (($x769 (= cell_3_5 4)))
 (let (($x3305 (= cell_3_5 3)))
 (let (($x1419 (= cell_3_5 2)))
 (let (($x3244 (= cell_3_5 1)))
 (or $x3244 $x1419 $x3305 $x769 $x3479 $x2298 $x1992 $x776 $x5638)))))))))))
(assert
 (let (($x3376 (= cell_4_5 9)))
 (let (($x778 (= cell_4_5 8)))
 (let (($x1574 (= cell_4_5 7)))
 (let (($x2400 (= cell_4_5 6)))
 (let (($x978 (= cell_4_5 5)))
 (let (($x2015 (= cell_4_5 4)))
 (let (($x3017 (= cell_4_5 3)))
 (let (($x3402 (= cell_4_5 2)))
 (let (($x30 (= cell_4_5 1)))
 (or $x30 $x3402 $x3017 $x2015 $x978 $x2400 $x1574 $x778 $x3376)))))))))))
(assert
 (let (($x1584 (= cell_5_5 9)))
 (let (($x2704 (= cell_5_5 8)))
 (let (($x337 (= cell_5_5 7)))
 (let (($x2672 (= cell_5_5 6)))
 (let (($x2686 (= cell_5_5 5)))
 (let (($x1682 (= cell_5_5 4)))
 (let (($x5723 (= cell_5_5 3)))
 (let (($x3031 (= cell_5_5 2)))
 (let (($x1351 (= cell_5_5 1)))
 (or $x1351 $x3031 $x5723 $x1682 $x2686 $x2672 $x337 $x2704 $x1584)))))))))))
(assert
 (let (($x37 (= cell_6_5 9)))
 (let (($x10 (= cell_6_5 8)))
 (let (($x2265 (= cell_6_5 7)))
 (let (($x2523 (= cell_6_5 6)))
 (let (($x1474 (= cell_6_5 5)))
 (let (($x839 (= cell_6_5 4)))
 (let (($x1829 (= cell_6_5 3)))
 (let (($x3697 (= cell_6_5 2)))
 (let (($x2769 (= cell_6_5 1)))
 (or $x2769 $x3697 $x1829 $x839 $x1474 $x2523 $x2265 $x10 $x37)))))))))))
(assert
 (let (($x3412 (= cell_7_5 1)))
 (or $x3412 (= cell_7_5 2) (= cell_7_5 3) (= cell_7_5 4) (= cell_7_5 5) (= cell_7_5 6) (= cell_7_5 7) (= cell_7_5 8) (= cell_7_5 9))))
(assert
 (let (($x510 (= cell_8_5 9)))
 (let (($x3503 (= cell_8_5 8)))
 (let (($x2422 (= cell_8_5 7)))
 (let (($x354 (= cell_8_5 6)))
 (let (($x1879 (= cell_8_5 5)))
 (let (($x3419 (= cell_8_5 4)))
 (let (($x1846 (= cell_8_5 3)))
 (let (($x1859 (= cell_8_5 2)))
 (let (($x244 (= cell_8_5 1)))
 (or $x244 $x1859 $x1846 $x3419 $x1879 $x354 $x2422 $x3503 $x510)))))))))))
(assert
 (let (($x1174 (= cell_9_5 9)))
 (let (($x1780 (= cell_9_5 8)))
 (let (($x7 (= cell_9_5 7)))
 (let (($x1496 (= cell_9_5 6)))
 (let (($x914 (= cell_9_5 5)))
 (let (($x2746 (= cell_9_5 4)))
 (let (($x3519 (= cell_9_5 3)))
 (let (($x954 (= cell_9_5 2)))
 (let (($x1607 (= cell_9_5 1)))
 (or $x1607 $x954 $x3519 $x2746 $x914 $x1496 $x7 $x1780 $x1174)))))))))))
(assert
 (let (($x3401 (= cell_1_6 9)))
 (let (($x2631 (= cell_1_6 8)))
 (let (($x2126 (= cell_1_6 7)))
 (let (($x22 (= cell_1_6 6)))
 (let (($x437 (= cell_1_6 5)))
 (let (($x2656 (= cell_1_6 4)))
 (let (($x2776 (= cell_1_6 3)))
 (let (($x1733 (= cell_1_6 2)))
 (let (($x2466 (= cell_1_6 1)))
 (or $x2466 $x1733 $x2776 $x2656 $x437 $x22 $x2126 $x2631 $x3401)))))))))))
(assert
 (let (($x1037 (= cell_2_6 9)))
 (let (($x2818 (= cell_2_6 8)))
 (let (($x1316 (= cell_2_6 7)))
 (let (($x4972 (= cell_2_6 6)))
 (let (($x3093 (= cell_2_6 5)))
 (let (($x588 (= cell_2_6 4)))
 (let (($x1797 (= cell_2_6 3)))
 (let (($x877 (= cell_2_6 2)))
 (let (($x443 (= cell_2_6 1)))
 (or $x443 $x877 $x1797 $x588 $x3093 $x4972 $x1316 $x2818 $x1037)))))))))))
(assert
 (let (($x899 (= cell_3_6 2)))
 (or (= cell_3_6 1) $x899 (= cell_3_6 3) (= cell_3_6 4) (= cell_3_6 5) (= cell_3_6 6) (= cell_3_6 7) (= cell_3_6 8) (= cell_3_6 9))))
(assert
 (let (($x3350 (= cell_4_6 9)))
 (let (($x9292 (= cell_4_6 8)))
 (let (($x2906 (= cell_4_6 7)))
 (let (($x1933 (= cell_4_6 6)))
 (let (($x1949 (= cell_4_6 5)))
 (let (($x2847 (= cell_4_6 4)))
 (let (($x2079 (= cell_4_6 3)))
 (let (($x505 (= cell_4_6 2)))
 (let (($x2992 (= cell_4_6 1)))
 (or $x2992 $x505 $x2079 $x2847 $x1949 $x1933 $x2906 $x9292 $x3350)))))))))))
(assert
 (let (($x536 (= cell_5_6 1)))
 (or $x536 (= cell_5_6 2) (= cell_5_6 3) (= cell_5_6 4) (= cell_5_6 5) (= cell_5_6 6) (= cell_5_6 7) (= cell_5_6 8) (= cell_5_6 9))))
(assert
 (let (($x3965 (= cell_6_6 9)))
 (let (($x167 (= cell_6_6 8)))
 (let (($x1227 (= cell_6_6 7)))
 (let (($x1211 (= cell_6_6 6)))
 (let (($x1393 (= cell_6_6 5)))
 (let (($x2346 (= cell_6_6 4)))
 (let (($x1430 (= cell_6_6 3)))
 (let (($x610 (= cell_6_6 2)))
 (let (($x3105 (= cell_6_6 1)))
 (or $x3105 $x610 $x1430 $x2346 $x1393 $x1211 $x1227 $x167 $x3965)))))))))))
(assert
 (let (($x3678 (= cell_7_6 9)))
 (let (($x1621 (= cell_7_6 8)))
 (let (($x2377 (= cell_7_6 7)))
 (let (($x2217 (= cell_7_6 6)))
 (let (($x1280 (= cell_7_6 5)))
 (let (($x349 (= cell_7_6 4)))
 (let (($x2624 (= cell_7_6 3)))
 (let (($x332 (= cell_7_6 2)))
 (let (($x622 (= cell_7_6 1)))
 (or $x622 $x332 $x2624 $x349 $x1280 $x2217 $x2377 $x1621 $x3678)))))))))))
(assert
 (let (($x85 (= cell_8_6 9)))
 (let (($x3501 (= cell_8_6 8)))
 (let (($x1144 (= cell_8_6 7)))
 (let (($x835 (= cell_8_6 6)))
 (let (($x3088 (= cell_8_6 5)))
 (let (($x2828 (= cell_8_6 4)))
 (let (($x20 (= cell_8_6 3)))
 (let (($x9137 (= cell_8_6 2)))
 (let (($x649 (= cell_8_6 1)))
 (or $x649 $x9137 $x20 $x2828 $x3088 $x835 $x1144 $x3501 $x85)))))))))))
(assert
 (let (($x799 (= cell_9_6 9)))
 (let (($x1270 (= cell_9_6 8)))
 (let (($x1604 (= cell_9_6 7)))
 (let (($x2778 (= cell_9_6 6)))
 (let (($x1397 (= cell_9_6 5)))
 (let (($x196 (= cell_9_6 4)))
 (let (($x880 (= cell_9_6 3)))
 (let (($x232 (= cell_9_6 2)))
 (let (($x1000 (= cell_9_6 1)))
 (or $x1000 $x232 $x880 $x196 $x1397 $x2778 $x1604 $x1270 $x799)))))))))))
(assert
 (let (($x3459 (= cell_1_7 9)))
 (let (($x2275 (= cell_1_7 8)))
 (let (($x1535 (= cell_1_7 7)))
 (let (($x975 (= cell_1_7 6)))
 (let (($x671 (= cell_1_7 5)))
 (let (($x1246 (= cell_1_7 4)))
 (let (($x2759 (= cell_1_7 3)))
 (let (($x3215 (= cell_1_7 2)))
 (let (($x2890 (= cell_1_7 1)))
 (or $x2890 $x3215 $x2759 $x1246 $x671 $x975 $x1535 $x2275 $x3459)))))))))))
(assert
 (let (($x2730 (= cell_2_7 1)))
 (or $x2730 (= cell_2_7 2) (= cell_2_7 3) (= cell_2_7 4) (= cell_2_7 5) (= cell_2_7 6) (= cell_2_7 7) (= cell_2_7 8) (= cell_2_7 9))))
(assert
 (let (($x1290 (= cell_3_7 9)))
 (let (($x2438 (= cell_3_7 8)))
 (let (($x3641 (= cell_3_7 7)))
 (let (($x1074 (= cell_3_7 6)))
 (let (($x50 (= cell_3_7 5)))
 (let (($x922 (= cell_3_7 4)))
 (let (($x32 (= cell_3_7 3)))
 (let (($x727 (= cell_3_7 2)))
 (let (($x2566 (= cell_3_7 1)))
 (or $x2566 $x727 $x32 $x922 $x50 $x1074 $x3641 $x2438 $x1290)))))))))))
(assert
 (let (($x1189 (= cell_4_7 9)))
 (let (($x2572 (= cell_4_7 8)))
 (let (($x3057 (= cell_4_7 7)))
 (let (($x777 (= cell_4_7 6)))
 (let (($x418 (= cell_4_7 5)))
 (let (($x845 (= cell_4_7 4)))
 (let (($x2129 (= cell_4_7 3)))
 (let (($x278 (= cell_4_7 2)))
 (let (($x412 (= cell_4_7 1)))
 (or $x412 $x278 $x2129 $x845 $x418 $x777 $x3057 $x2572 $x1189)))))))))))
(assert
 (let (($x2461 (= cell_5_7 9)))
 (let (($x1972 (= cell_5_7 8)))
 (let (($x2974 (= cell_5_7 7)))
 (let (($x1665 (= cell_5_7 6)))
 (let (($x284 (= cell_5_7 5)))
 (let (($x122 (= cell_5_7 4)))
 (let (($x3134 (= cell_5_7 3)))
 (let (($x2697 (= cell_5_7 2)))
 (let (($x3322 (= cell_5_7 1)))
 (or $x3322 $x2697 $x3134 $x122 $x284 $x1665 $x2974 $x1972 $x2461)))))))))))
(assert
 (let (($x1305 (= cell_6_7 9)))
 (let (($x3242 (= cell_6_7 8)))
 (let (($x1312 (= cell_6_7 7)))
 (let (($x710 (= cell_6_7 6)))
 (let (($x2860 (= cell_6_7 5)))
 (let (($x1899 (= cell_6_7 4)))
 (let (($x322 (= cell_6_7 3)))
 (let (($x5037 (= cell_6_7 2)))
 (let (($x2904 (= cell_6_7 1)))
 (or $x2904 $x5037 $x322 $x1899 $x2860 $x710 $x1312 $x3242 $x1305)))))))))))
(assert
 (let (($x3655 (= cell_7_7 9)))
 (let (($x334 (= cell_7_7 8)))
 (let (($x2736 (= cell_7_7 7)))
 (let (($x873 (= cell_7_7 6)))
 (let (($x4320 (= cell_7_7 5)))
 (let (($x1139 (= cell_7_7 4)))
 (let (($x2862 (= cell_7_7 3)))
 (let (($x3270 (= cell_7_7 2)))
 (let (($x303 (= cell_7_7 1)))
 (or $x303 $x3270 $x2862 $x1139 $x4320 $x873 $x2736 $x334 $x3655)))))))))))
(assert
 (let (($x2905 (= cell_8_7 2)))
 (or (= cell_8_7 1) $x2905 (= cell_8_7 3) (= cell_8_7 4) (= cell_8_7 5) (= cell_8_7 6) (= cell_8_7 7) (= cell_8_7 8) (= cell_8_7 9))))
(assert
 (let (($x890 (= cell_9_7 9)))
 (let (($x3638 (= cell_9_7 8)))
 (let (($x1479 (= cell_9_7 7)))
 (let (($x870 (= cell_9_7 6)))
 (let (($x9532 (= cell_9_7 5)))
 (let (($x689 (= cell_9_7 4)))
 (let (($x2013 (= cell_9_7 3)))
 (let (($x3587 (= cell_9_7 2)))
 (let (($x1057 (= cell_9_7 1)))
 (or $x1057 $x3587 $x2013 $x689 $x9532 $x870 $x1479 $x3638 $x890)))))))))))
(assert
 (let (($x2134 (= cell_1_8 9)))
 (let (($x3086 (= cell_1_8 8)))
 (let (($x2103 (= cell_1_8 7)))
 (let (($x1716 (= cell_1_8 6)))
 (let (($x630 (= cell_1_8 5)))
 (let (($x300 (= cell_1_8 4)))
 (let (($x3385 (= cell_1_8 3)))
 (let (($x341 (= cell_1_8 2)))
 (let (($x800 (= cell_1_8 1)))
 (or $x800 $x341 $x3385 $x300 $x630 $x1716 $x2103 $x3086 $x2134)))))))))))
(assert
 (let (($x5609 (= cell_2_8 2)))
 (or (= cell_2_8 1) $x5609 (= cell_2_8 3) (= cell_2_8 4) (= cell_2_8 5) (= cell_2_8 6) (= cell_2_8 7) (= cell_2_8 8) (= cell_2_8 9))))
(assert
 (let (($x1512 (= cell_3_8 9)))
 (let (($x1467 (= cell_3_8 8)))
 (let (($x1361 (= cell_3_8 7)))
 (let (($x1810 (= cell_3_8 6)))
 (let (($x2764 (= cell_3_8 5)))
 (let (($x3075 (= cell_3_8 4)))
 (let (($x3319 (= cell_3_8 3)))
 (let (($x591 (= cell_3_8 2)))
 (let (($x2058 (= cell_3_8 1)))
 (or $x2058 $x591 $x3319 $x3075 $x2764 $x1810 $x1361 $x1467 $x1512)))))))))))
(assert
 (let (($x3102 (= cell_4_8 9)))
 (let (($x1513 (= cell_4_8 8)))
 (let (($x329 (= cell_4_8 7)))
 (let (($x2215 (= cell_4_8 6)))
 (let (($x3508 (= cell_4_8 5)))
 (let (($x549 (= cell_4_8 4)))
 (let (($x1724 (= cell_4_8 3)))
 (let (($x2886 (= cell_4_8 2)))
 (let (($x3217 (= cell_4_8 1)))
 (or $x3217 $x2886 $x1724 $x549 $x3508 $x2215 $x329 $x1513 $x3102)))))))))))
(assert
 (let (($x3130 (= cell_5_8 9)))
 (let (($x14 (= cell_5_8 8)))
 (let (($x3630 (= cell_5_8 7)))
 (let (($x3513 (= cell_5_8 6)))
 (let (($x2894 (= cell_5_8 5)))
 (let (($x1027 (= cell_5_8 4)))
 (let (($x1625 (= cell_5_8 3)))
 (let (($x2163 (= cell_5_8 2)))
 (let (($x2336 (= cell_5_8 1)))
 (or $x2336 $x2163 $x1625 $x1027 $x2894 $x3513 $x3630 $x14 $x3130)))))))))))
(assert
 (let (($x1112 (= cell_6_8 1)))
 (or $x1112 (= cell_6_8 2) (= cell_6_8 3) (= cell_6_8 4) (= cell_6_8 5) (= cell_6_8 6) (= cell_6_8 7) (= cell_6_8 8) (= cell_6_8 9))))
(assert
 (let (($x1550 (= cell_7_8 9)))
 (let (($x290 (= cell_7_8 8)))
 (let (($x3651 (= cell_7_8 7)))
 (let (($x1532 (= cell_7_8 6)))
 (let (($x2565 (= cell_7_8 5)))
 (let (($x318 (= cell_7_8 4)))
 (let (($x8615 (= cell_7_8 3)))
 (let (($x2457 (= cell_7_8 2)))
 (let (($x2231 (= cell_7_8 1)))
 (or $x2231 $x2457 $x8615 $x318 $x2565 $x1532 $x3651 $x290 $x1550)))))))))))
(assert
 (let (($x2402 (= cell_8_8 9)))
 (let (($x3528 (= cell_8_8 8)))
 (let (($x2405 (= cell_8_8 7)))
 (let (($x455 (= cell_8_8 6)))
 (let (($x1107 (= cell_8_8 5)))
 (let (($x120 (= cell_8_8 4)))
 (let (($x2003 (= cell_8_8 3)))
 (let (($x1285 (= cell_8_8 2)))
 (let (($x2517 (= cell_8_8 1)))
 (or $x2517 $x1285 $x2003 $x120 $x1107 $x455 $x2405 $x3528 $x2402)))))))))))
(assert
 (let (($x1808 (= cell_9_8 9)))
 (let (($x1175 (= cell_9_8 8)))
 (let (($x2479 (= cell_9_8 7)))
 (let (($x2657 (= cell_9_8 6)))
 (let (($x3089 (= cell_9_8 5)))
 (let (($x276 (= cell_9_8 4)))
 (let (($x2158 (= cell_9_8 3)))
 (let (($x2507 (= cell_9_8 2)))
 (let (($x2454 (= cell_9_8 1)))
 (or $x2454 $x2507 $x2158 $x276 $x3089 $x2657 $x2479 $x1175 $x1808)))))))))))
(assert
 (let (($x532 (= cell_1_9 9)))
 (let (($x1366 (= cell_1_9 8)))
 (let (($x3357 (= cell_1_9 7)))
 (let (($x790 (= cell_1_9 6)))
 (let (($x2186 (= cell_1_9 5)))
 (let (($x2086 (= cell_1_9 4)))
 (let (($x2478 (= cell_1_9 3)))
 (let (($x1746 (= cell_1_9 2)))
 (let (($x2089 (= cell_1_9 1)))
 (or $x2089 $x1746 $x2478 $x2086 $x2186 $x790 $x3357 $x1366 $x532)))))))))))
(assert
 (let (($x2263 (= cell_2_9 9)))
 (let (($x4952 (= cell_2_9 8)))
 (let (($x2484 (= cell_2_9 7)))
 (let (($x3027 (= cell_2_9 6)))
 (let (($x2451 (= cell_2_9 5)))
 (let (($x1490 (= cell_2_9 4)))
 (let (($x3816 (= cell_2_9 3)))
 (let (($x2907 (= cell_2_9 2)))
 (let (($x3321 (= cell_2_9 1)))
 (or $x3321 $x2907 $x3816 $x1490 $x2451 $x3027 $x2484 $x4952 $x2263)))))))))))
(assert
 (let (($x2593 (= cell_3_9 9)))
 (let (($x105 (= cell_3_9 8)))
 (let (($x1059 (= cell_3_9 7)))
 (let (($x1036 (= cell_3_9 6)))
 (let (($x3749 (= cell_3_9 5)))
 (let (($x487 (= cell_3_9 4)))
 (let (($x484 (= cell_3_9 3)))
 (let (($x763 (= cell_3_9 2)))
 (let (($x1339 (= cell_3_9 1)))
 (or $x1339 $x763 $x484 $x487 $x3749 $x1036 $x1059 $x105 $x2593)))))))))))
(assert
 (let (($x936 (= cell_4_9 9)))
 (let (($x2236 (= cell_4_9 8)))
 (let (($x235 (= cell_4_9 7)))
 (let (($x3274 (= cell_4_9 6)))
 (let (($x3499 (= cell_4_9 5)))
 (let (($x2184 (= cell_4_9 4)))
 (let (($x5895 (= cell_4_9 3)))
 (let (($x9304 (= cell_4_9 2)))
 (let (($x5411 (= cell_4_9 1)))
 (or $x5411 $x9304 $x5895 $x2184 $x3499 $x3274 $x235 $x2236 $x936)))))))))))
(assert
 (let (($x112 (= cell_5_9 2)))
 (or (= cell_5_9 1) $x112 (= cell_5_9 3) (= cell_5_9 4) (= cell_5_9 5) (= cell_5_9 6) (= cell_5_9 7) (= cell_5_9 8) (= cell_5_9 9))))
(assert
 (let (($x2498 (= cell_6_9 9)))
 (let (($x1937 (= cell_6_9 8)))
 (let (($x867 (= cell_6_9 7)))
 (let (($x3424 (= cell_6_9 6)))
 (let (($x467 (= cell_6_9 5)))
 (let (($x3750 (= cell_6_9 4)))
 (let (($x1691 (= cell_6_9 3)))
 (let (($x256 (= cell_6_9 2)))
 (let (($x3296 (= cell_6_9 1)))
 (or $x3296 $x256 $x1691 $x3750 $x467 $x3424 $x867 $x1937 $x2498)))))))))))
(assert
 (let (($x1888 (= cell_7_9 9)))
 (let (($x3263 (= cell_7_9 8)))
 (let (($x878 (= cell_7_9 7)))
 (let (($x2338 (= cell_7_9 6)))
 (let (($x2771 (= cell_7_9 5)))
 (let (($x969 (= cell_7_9 4)))
 (let (($x2060 (= cell_7_9 3)))
 (let (($x3753 (= cell_7_9 2)))
 (let (($x5337 (= cell_7_9 1)))
 (or $x5337 $x3753 $x2060 $x969 $x2771 $x2338 $x878 $x3263 $x1888)))))))))))
(assert
 (let (($x2004 (= cell_8_9 9)))
 (let (($x1599 (= cell_8_9 8)))
 (let (($x242 (= cell_8_9 7)))
 (let (($x756 (= cell_8_9 6)))
 (let (($x3022 (= cell_8_9 5)))
 (let (($x1577 (= cell_8_9 4)))
 (let (($x3335 (= cell_8_9 3)))
 (let (($x3589 (= cell_8_9 2)))
 (let (($x51 (= cell_8_9 1)))
 (or $x51 $x3589 $x3335 $x1577 $x3022 $x756 $x242 $x1599 $x2004)))))))))))
(assert
 (let (($x1060 (= cell_9_9 1)))
 (or $x1060 (= cell_9_9 2) (= cell_9_9 3) (= cell_9_9 4) (= cell_9_9 5) (= cell_9_9 6) (= cell_9_9 7) (= cell_9_9 8) (= cell_9_9 9))))
(assert
 (and (distinct cell_1_1 cell_1_2 cell_1_3 cell_1_4 cell_1_5 cell_1_6 cell_1_7 cell_1_8 cell_1_9) true))
(assert
 (and (distinct cell_2_1 cell_2_2 cell_2_3 cell_2_4 cell_2_5 cell_2_6 cell_2_7 cell_2_8 cell_2_9) true))
(assert
 (and (distinct cell_3_1 cell_3_2 cell_3_3 cell_3_4 cell_3_5 cell_3_6 cell_3_7 cell_3_8 cell_3_9) true))
(assert
 (and (distinct cell_4_1 cell_4_2 cell_4_3 cell_4_4 cell_4_5 cell_4_6 cell_4_7 cell_4_8 cell_4_9) true))
(assert
 (and (distinct cell_5_1 cell_5_2 cell_5_3 cell_5_4 cell_5_5 cell_5_6 cell_5_7 cell_5_8 cell_5_9) true))
(assert
 (and (distinct cell_6_1 cell_6_2 cell_6_3 cell_6_4 cell_6_5 cell_6_6 cell_6_7 cell_6_8 cell_6_9) true))
(assert
 (and (distinct cell_7_1 cell_7_2 cell_7_3 cell_7_4 cell_7_5 cell_7_6 cell_7_7 cell_7_8 cell_7_9) true))
(assert
 (and (distinct cell_8_1 cell_8_2 cell_8_3 cell_8_4 cell_8_5 cell_8_6 cell_8_7 cell_8_8 cell_8_9) true))
(assert
 (and (distinct cell_9_1 cell_9_2 cell_9_3 cell_9_4 cell_9_5 cell_9_6 cell_9_7 cell_9_8 cell_9_9) true))
(assert
 (and (distinct cell_1_1 cell_2_1 cell_3_1 cell_4_1 cell_5_1 cell_6_1 cell_7_1 cell_8_1 cell_9_1) true))
(assert
 (and (distinct cell_1_2 cell_2_2 cell_3_2 cell_4_2 cell_5_2 cell_6_2 cell_7_2 cell_8_2 cell_9_2) true))
(assert
 (and (distinct cell_1_3 cell_2_3 cell_3_3 cell_4_3 cell_5_3 cell_6_3 cell_7_3 cell_8_3 cell_9_3) true))
(assert
 (and (distinct cell_1_4 cell_2_4 cell_3_4 cell_4_4 cell_5_4 cell_6_4 cell_7_4 cell_8_4 cell_9_4) true))
(assert
 (and (distinct cell_1_5 cell_2_5 cell_3_5 cell_4_5 cell_5_5 cell_6_5 cell_7_5 cell_8_5 cell_9_5) true))
(assert
 (and (distinct cell_1_6 cell_2_6 cell_3_6 cell_4_6 cell_5_6 cell_6_6 cell_7_6 cell_8_6 cell_9_6) true))
(assert
 (and (distinct cell_1_7 cell_2_7 cell_3_7 cell_4_7 cell_5_7 cell_6_7 cell_7_7 cell_8_7 cell_9_7) true))
(assert
 (and (distinct cell_1_8 cell_2_8 cell_3_8 cell_4_8 cell_5_8 cell_6_8 cell_7_8 cell_8_8 cell_9_8) true))
(assert
 (and (distinct cell_1_9 cell_2_9 cell_3_9 cell_4_9 cell_5_9 cell_6_9 cell_7_9 cell_8_9 cell_9_9) true))
(assert
 (and (distinct cell_1_1 cell_1_2 cell_1_3 cell_2_1 cell_2_2 cell_2_3 cell_3_1 cell_3_2 cell_3_3) true))
(assert
 (and (distinct cell_1_4 cell_1_5 cell_1_6 cell_2_4 cell_2_5 cell_2_6 cell_3_4 cell_3_5 cell_3_6) true))
(assert
 (and (distinct cell_1_7 cell_1_8 cell_1_9 cell_2_7 cell_2_8 cell_2_9 cell_3_7 cell_3_8 cell_3_9) true))
(assert
 (and (distinct cell_4_1 cell_4_2 cell_4_3 cell_5_1 cell_5_2 cell_5_3 cell_6_1 cell_6_2 cell_6_3) true))
(assert
 (and (distinct cell_4_4 cell_4_5 cell_4_6 cell_5_4 cell_5_5 cell_5_6 cell_6_4 cell_6_5 cell_6_6) true))
(assert
 (and (distinct cell_4_7 cell_4_8 cell_4_9 cell_5_7 cell_5_8 cell_5_9 cell_6_7 cell_6_8 cell_6_9) true))
(assert
 (and (distinct cell_7_1 cell_7_2 cell_7_3 cell_8_1 cell_8_2 cell_8_3 cell_9_1 cell_9_2 cell_9_3) true))
(assert
 (and (distinct cell_7_4 cell_7_5 cell_7_6 cell_8_4 cell_8_5 cell_8_6 cell_9_4 cell_9_5 cell_9_6) true))
(assert
 (and (distinct cell_7_7 cell_7_8 cell_7_9 cell_8_7 cell_8_8 cell_8_9 cell_9_7 cell_9_8 cell_9_9) true))
(assert
 (let (($x2436 (and (distinct cell_5_9 cell_6_8 cell_7_7 cell_8_6) true)))
 (let (($x6844 (and (distinct cell_2_9 cell_3_8 cell_4_7 cell_5_6 cell_6_5 cell_7_4 cell_8_3 cell_9_2) true)))
 (let (($x9104 (and (distinct cell_1_8 cell_2_7 cell_3_6 cell_4_5 cell_5_4 cell_6_3 cell_7_2 cell_8_1) true)))
 (let (($x2864 (and (distinct cell_1_5 cell_2_4 cell_3_3 cell_4_2) true)))
 (let (($x2316 (and (distinct cell_5_1 cell_6_2 cell_7_3 cell_8_4) true)))
 (let (($x721 (and (distinct cell_2_1 cell_3_2 cell_4_3 cell_5_4 cell_6_5 cell_7_6 cell_8_7 cell_9_8) true)))
 (let (($x1999 (and (distinct cell_1_2 cell_2_3 cell_3_4 cell_4_5 cell_5_6 cell_6_7 cell_7_8 cell_8_9) true)))
 (let (($x2375 (and (distinct cell_1_5 cell_2_6 cell_3_7 cell_4_8) true)))
 (and $x2375 $x1999 $x721 $x2316 $x2864 $x9104 $x6844 $x2436))))))))))
(assert
 (= cell_9_5 2))
(check-sat)
